============================[ Problem Statistics ]=============================|                                                                             ||  Number of variables:          4242                                         ||  Number of clauses:           10046                                         ||  Parse time:                   0.44 s                                       ||                                                                             |============================[ Search Statistics ]==============================| Conflicts |          ORIGINAL         |          LEARNT          | Progress ||           |    Vars  Clauses Literals |    Limit  Clauses Lit/Cl |          |===============================================================================|       100 |    1591     6251   692742 |     2292      100     53 | 62.501 % |===============================================================================restarts              : 3conflicts             : 247            (369 /sec)decisions             : 510            (0.00 % random) (761 /sec)propagations          : 11744          (17528 /sec)conflict literals     : 18589          (94.91 % deleted)CPU time              : 0.67 sSATISFIABLE